(set-logic QF_FP)
(set-option :produce-models true)
(set-info :source |Random FP created by PyMPF|)
(set-info :category random)
(set-info :status sat)
(declare-const x Float32)
(assert (= x ((_ to_fp 8 24) #x80800000)))
(declare-const y Float32)
(assert (= y (fp #b0 #b00101010 #b01011111011101111110100)))
(declare-const result Float32)
(assert (= result (fp.div RTN x y)))
(assert (= result (fp #b1 #b01010101 #b01110100111011010100100)))
(check-sat)
(exit)
